0001 30
0002 35
0003 1
0004 23
0005 22
0006 26
0007 4
0008 35
0009 10
0010 3
0011 28
0012 16
0013 34
0014 33
0015 8
0016 30
0017 32
0018 33
0019 35
0020 27
0021 18
0022 8
0023 4
0024 18
0025 21
0026 29
0027 35
0028 34
0029 6
0030 21
0031 21
0032 34
0033 32
0034 3
0035 35
0036 34
0037 22
0038 15
0039 33
0040 35
0041 29
0042 35
0043 26
0044 32
0045 27
0046 29
0047 30
0048 19
0049 11
0050 23
0051 16
0052 34
0053 22
0054 21
0055 23
0056 17
0057 35
0058 33
0059 30
0060 19
0061 35
0062 35
0063 17
0064 22
0065 35
0066 8
0067 24
0068 18
0069 21
0070 23
0071 23
0072 33
0073 21
0074 20
0075 25
0076 32
0077 30
0078 17
0079 33
0080 15
0081 35
0082 18
0083 22
0084 35
0085 29
0086 20
0087 17
0088 30
0089 25
0090 23
0091 11
0092 33
0093 33
0094 26
0095 23
0096 20
0097 26
0098 31
0099 31
0100 15
0101 35
0102 18
0103 22
0104 18
0105 31
0106 27
0107 29
0108 19
0109 21
0110 17
0111 9
0112 21
0113 12
0114 34
0115 23
0116 7
0117 15
0118 11
0119 30
0120 23
0121 28
0122 13
0123 6
0124 33
0125 26
0126 17
0127 21
0128 35
0129 27
0130 26
0131 33
0132 4
0133 27
0134 6
0135 35
0136 9
0137 10
0138 33
0139 11
0140 30
0141 32
0142 34
0143 17
0144 19
0145 4
0146 34
0147 13
0148 25
0149 22
0150 32
0151 35
0152 15
0153 26
0154 18
0155 8
0156 27
0157 21
0158 29
0159 19
0160 34
0161 22
0162 20
0163 25
0164 35
0165 30
0166 8
0167 17
0168 26
0169 24
0170 1
0171 15
0172 11
0173 25
0174 26
0175 35
0176 32
0177 20
0178 20
0179 29
0180 9
0181 21
0182 9
0183 28
0184 9
0185 32
0186 35
0187 32
0188 22
0189 35
0190 34
0191 23
0192 33
0193 11
0194 16
0195 32
0196 32
0197 23
0198 22
0199 8
0200 23
0201 24
0202 34
0203 31
0204 30
0205 27
0206 29
0207 20
0208 4
0209 18
0210 30
0211 25
0212 28
0213 15
0214 33
0215 13
0216 18
0217 33
0218 35
0219 19
0220 20
0221 13
0222 27
0223 30
0224 32
0225 21
0226 35
0227 35
0228 32
0229 34
0230 29
0231 34
0232 33
0233 33
0234 35
0235 23
0236 34
0237 32
0238 29
0239 29
0240 13
0241 9
0242 32
0243 17
0244 25
0245 26
0246 35
0247 19
0248 4
0249 12
0250 17
0251 18
0252 29
0253 32
0254 29
0255 34
0256 35
0257 27
0258 16
0259 20
0260 11
0261 22
0262 35
0263 8
0264 20
0265 26
0266 33
0267 13
0268 35
0269 32
0270 28
0271 22
0272 21
0273 4
0274 21
0275 19
0276 17
0277 34
0278 27
0279 30
0280 26
0281 33
0282 29
0283 27
0284 15
0285 11
0286 19
0287 32
0288 23
0289 23
0290 30
0291 33
0292 35
0293 35
0294 35
0295 22
0296 35
0297 23
0298 34
0299 25
0300 30
0301 35
0302 20
0303 34
0304 23
0305 31
0306 10
0307 25
0308 34
0309 25
0310 22
0311 29
0312 29
0313 17
0314 17
0315 20
0316 35
0317 33
0318 32
0319 13
0320 21
0321 17
0322 18
0323 34
0324 33
0325 20
0326 22
0327 26
0328 29
0329 34
0330 34
0331 13
0332 30
0333 22
0334 35
0335 34
0336 25
0337 29
0338 15
0339 20
0340 26
0341 32
0342 29
0343 33
0344 35
0345 31
0346 26
0347 20
0348 17
0349 32
0350 25
0351 25
0352 12
0353 14
0354 16
0355 33
0356 11
0357 29
0358 25
0359 25
0360 29
0361 11
0362 28
0363 32
0364 34
0365 22
0366 27
0367 22
0368 29
0369 19
0370 35
0371 34
0372 32
0373 13
0374 30
0375 22
0376 35
0377 26
0378 25
0379 32
0380 32
0381 20
0382 26
0383 26
0384 34
0385 21
0386 8
0387 28
0388 33
0389 20
0390 24
0391 29
0392 32
0393 20
0394 27
0395 31
0396 19
0397 9
0398 34
0399 25
0400 33
0401 35
0402 18
0403 11
0404 23
0405 33
0406 32
0407 31
0408 32
0409 15
0410 34
0411 24
0412 21
0413 33
0414 34
0415 32
0416 22
0417 26
0418 34
0419 20
0420 21
0421 34
0422 34
0423 21
0424 32
0425 17
0426 18
0427 22
0428 34
0429 15
0430 32
0431 35
0432 17
0433 35
0434 29
0435 34
0436 33
0437 24
0438 23
0439 19
0440 34
0441 34
0442 20
0443 18
0444 18
0445 26
0446 19
0447 28
0448 30
0449 5
0450 29
0451 32
0452 8
0453 6
0454 29
0455 13
0456 35
0457 32
0458 26
0459 34
0460 22
0461 25
0462 11
0463 27
0464 22
0465 15
0466 15
0467 15
0468 9
0469 25
0470 19
0471 33
0472 30
0473 26
0474 22
0475 21
0476 27
0477 34
0478 25
0479 30
0480 34
0481 34
0482 5
0483 27
0484 24
0485 14
0486 25
0487 21
0488 15
0489 34
0490 18
0491 11
0492 32
0493 27
0494 32
0495 35
0496 24
0497 28
0498 30
0499 15
0500 33
0501 25
0502 34
0503 26
0504 32
0505 34
0506 11
0507 17
0508 25
0509 32
0510 12
0511 23
0512 34
0513 2
0514 17
0515 27
0516 32
0517 20
0518 2
0519 4
0520 22
0521 24
0522 34
0523 35
0524 21
0525 35
0526 18
0527 20
0528 28
0529 30
0530 11
0531 33
0532 29
0533 33
0534 35
0535 22
0536 35
0537 21
0538 32
0539 35
0540 30
0541 33
0542 19
0543 25
0544 34
0545 13
0546 30
0547 34
0548 35
0549 32
0550 30
0551 34
0552 35
0553 33
0554 35
0555 27
0556 18
0557 33
0558 30
0559 35
0560 33
0561 34
0562 34
0563 32
0564 34
0565 30
0566 32
0567 26
0568 18
0569 23
0570 32
0571 32
0572 25
0573 9
0574 7
0575 15
0576 30
0577 32
0578 10
0579 26
0580 23
0581 30
0582 26
0583 27
0584 22
0585 23
0586 21
0587 26
0588 27
0589 27
0590 13
0591 23
0592 33
0593 34
0594 18
0595 29
0596 34
0597 11
0598 25
0599 35
0600 35
0601 27
0602 15
0603 21
0604 30
0605 33
0606 16
0607 17
0608 26
0609 26
0610 15
0611 13
0612 22
0613 25
0614 9
0615 31
0616 34
0617 30
0618 34
0619 32
0620 30
0621 35
0622 33
